Minimize
  + 3419.554431298084 Constant
Subject To
 R22: (pr2-pose-(1,_0)) = -0.157086615664619
 R24: (can0-pose-(1,_0)) = 1
 R36: - (pr2-pose-(1,_0)) + (can0-pose-(1,_0)) <= 1
Bounds
 (pr2-pose-(1,_0)) free
 (can0-pose-(1,_0)) free
 Constant = 1
End
